language ESSENCE' 1.0
letting lastdx=101
letting cage be [
[16,7,12,0,0, 0,0, 0,0, 0,0],
[1,8,16,0,0, 0,0, 0,0, 0,0],
[5,3,13,0,0, 0,0, 0,0, 0,0],
[37,15,2,15,1,16,1,16,2,16,3],
[15,14,3,0,0, 0,0, 0,0, 0,0],
[38,8,6,9,6,10,6,10,7,0,0],
[50,4,3,5,3,5,4,4,4,4,5],
[42,4,2,4,1,5,1,6,1,7,1],
[14,6,9,6,8,0,0, 0,0, 0,0],
[15,15,14,14,14,0,0, 0,0, 0,0],
[8,1,12,2,12,0,0, 0,0, 0,0],
[31,4,16,4,15,4,14,0,0, 0,0],
[8,12,7,0,0, 0,0, 0,0, 0,0],
[21,7,7,7,6,0,0, 0,0, 0,0],
[8,15,8,0,0, 0,0, 0,0, 0,0],
[15,13,4,13,3,0,0, 0,0, 0,0],
[18,16,11,16,10,0,0, 0,0, 0,0],
[14,4,10,0,0, 0,0, 0,0, 0,0],
[6,1,7,0,0, 0,0, 0,0, 0,0],
[9,11,11,11,10,0,0, 0,0, 0,0],
[43,9,1,8,1,8,2,8,3,8,4],
[14,6,11,0,0, 0,0, 0,0, 0,0],
[23,5,8,5,7,6,7,0,0, 0,0],
[28,12,15,11,15,10,15,0,0, 0,0],
[2,15,5,0,0, 0,0, 0,0, 0,0],
[13,3,7,0,0, 0,0, 0,0, 0,0],
[10,6,14,0,0, 0,0, 0,0, 0,0],
[19,14,16,14,15,13,15,0,0, 0,0],
[4,10,3,0,0, 0,0, 0,0, 0,0],
[29,13,6,12,6,11,6,0,0, 0,0],
[18,15,9,16,9,0,0, 0,0, 0,0],
[12,9,9,9,8,0,0, 0,0, 0,0],
[18,15,3,15,4,16,4,0,0, 0,0],
[5,15,15,0,0, 0,0, 0,0, 0,0],
[44,3,8,3,9,4,9,4,8,4,7],
[5,14,12,0,0, 0,0, 0,0, 0,0],
[1,5,5,0,0, 0,0, 0,0, 0,0],
[30,4,6,3,6,2,6,1,6,1,5],
[30,14,7,13,7,0,0, 0,0, 0,0],
[41,16,15,16,14,16,13,16,12,0,0],
[32,15,11,15,12,15,13,14,13,0,0],
[21,7,2,7,3,6,3,6,4,0,0],
[31,11,12,11,13,10,13,10,14,0,0],
[19,12,14,11,14,0,0, 0,0, 0,0],
[15,16,7,16,8,0,0, 0,0, 0,0],
[20,13,11,13,12,0,0, 0,0, 0,0],
[42,8,14,8,15,7,15,7,16,0,0],
[15,13,14,0,0, 0,0, 0,0, 0,0],
[21,14,4,14,5,0,0, 0,0, 0,0],
[7,6,13,0,0, 0,0, 0,0, 0,0],
[20,1,8,1,9,1,10,2,10,0,0],
[27,14,10,14,11,15,10,0,0, 0,0],
[6,11,3,0,0, 0,0, 0,0, 0,0],
[38,12,13,13,13,12,12,0,0, 0,0],
[23,7,5,7,4,8,5,0,0, 0,0],
[28,5,2,6,2,0,0, 0,0, 0,0],
[25,5,10,5,9,0,0, 0,0, 0,0],
[46,10,10,9,10,8,10,8,9,8,8],
[14,1,3,0,0, 0,0, 0,0, 0,0],
[49,9,3,9,4,9,2,10,2,0,0],
[21,3,5,2,5,0,0, 0,0, 0,0],
[16,7,11,7,10,6,10,0,0, 0,0],
[45,4,13,4,12,3,12,3,11,3,10],
[40,15,7,15,6,14,6,16,6,16,5],
[3,12,9,0,0, 0,0, 0,0, 0,0],
[38,13,5,12,5,12,4,12,3,0,0],
[22,10,9,10,8,0,0, 0,0, 0,0],
[38,5,15,5,14,5,13,5,12,6,12],
[23,1,11,2,11,0,0, 0,0, 0,0],
[15,10,12,0,0, 0,0, 0,0, 0,0],
[16,1,1,0,0, 0,0, 0,0, 0,0],
[23,1,2,2,2,2,1,3,1,3,2],
[9,1,4,0,0, 0,0, 0,0, 0,0],
[30,1,13,1,14,1,15,0,0, 0,0],
[38,1,16,2,16,3,16,3,15,0,0],
[13,2,3,0,0, 0,0, 0,0, 0,0],
[6,2,4,0,0, 0,0, 0,0, 0,0],
[40,2,7,2,8,2,9,0,0, 0,0],
[10,2,13,0,0, 0,0, 0,0, 0,0],
[18,2,14,2,15,3,14,0,0, 0,0],
[18,3,3,3,4,0,0, 0,0, 0,0],
[7,4,11,5,11,0,0, 0,0, 0,0],
[30,5,6,6,6,6,5,0,0, 0,0],
[11,5,16,0,0, 0,0, 0,0, 0,0],
[13,6,15,6,16,0,0, 0,0, 0,0],
[7,7,8,7,9,0,0, 0,0, 0,0],
[39,7,13,7,14,8,13,8,12,0,0],
[8,8,7,9,7,0,0, 0,0, 0,0],
[26,8,11,9,11,10,11,0,0, 0,0],
[2,9,12,0,0, 0,0, 0,0, 0,0],
[40,9,13,9,14,9,15,9,16,10,16],
[13,10,1,0,0, 0,0, 0,0, 0,0],
[11,11,1,0,0, 0,0, 0,0, 0,0],
[34,11,2,12,2,12,1,13,1,14,1],
[54,11,7,11,8,11,9,12,8,13,8],
[5,11,16,0,0, 0,0, 0,0, 0,0],
[16,12,10,12,11,0,0, 0,0, 0,0],
[15,12,16,13,16,0,0, 0,0, 0,0],
[23,13,2,14,2,0,0, 0,0, 0,0],
[8,13,9,13,10,0,0, 0,0, 0,0],
[6,14,8,14,9,0,0, 0,0, 0,0],
[26,15,16,16,16,0,0, 0,0, 0,0]
]
